aod/lista2/zad2/factory.dat
data;

set machine:= m1 m2 m3;
set product:= p1 p2 p3 p4;

param max_demand := p1 400 p2 100 p3 150 p4 500;
param profit := p1 9 p2 7 p3 6 p4 5;
param working_costs := m1 2 m2 2 m3 3;
param material_costs := p1 4 p2 1 p3 1 p4 1;
param creating_time: m1 m2 m3:=
        p1 5 10 6
        p2 3 6 4
        p3 4 5 3
        p4 4 2 1;

param working_time := 3660; 